NAME: map8_180
TYPE: TSP
COMMENT: autogenerated using a wonderful map creator
DIMENSION: 210
EDGE_WEIGHT_TYPE: EUC_2D
NODE_COORD_SECTION
1 21.0 52.0
2 22.0 52.0
3 23.0 52.0
4 21.0 54.0
5 22.0 54.0
6 23.0 54.0
7 22.0 11.0
8 22.0 10.0
9 75.0 8.0
10 74.0 8.0
11 67.0 37.0
12 67.0 38.0
13 67.0 39.0
14 67.0 40.0
15 67.0 41.0
16 24.0 52.0
17 25.0 52.0
18 24.0 54.0
19 25.0 54.0
20 22.0 9.0
21 22.0 8.0
22 22.0 7.0
23 73.0 8.0
24 72.0 8.0
25 71.0 8.0
26 67.0 42.0
27 67.0 43.0
28 67.0 44.0
29 67.0 45.0
30 67.0 46.0
31 21.0 51.0
32 22.0 51.0
33 23.0 51.0
34 21.0 55.0
35 22.0 55.0
36 23.0 55.0
37 23.0 11.0
38 23.0 10.0
39 75.0 9.0
40 74.0 9.0
41 66.0 37.0
42 66.0 38.0
43 66.0 39.0
44 66.0 40.0
45 66.0 41.0
46 24.0 51.0
47 25.0 51.0
48 24.0 55.0
49 25.0 55.0
50 23.0 9.0
51 23.0 8.0
52 23.0 7.0
53 73.0 9.0
54 72.0 9.0
55 71.0 9.0
56 66.0 42.0
57 66.0 43.0
58 66.0 44.0
59 66.0 45.0
60 66.0 46.0
61 52.0 40.0
62 55.0 2.0
63 73.0 17.0
64 54.0 31.0
65 22.0 26.0
66 38.0 44.0
67 56.0 37.0
68 39.0 51.0
69 51.0 16.0
70 37.0 33.0
71 51.0 25.0
72 6.0 57.0
73 52.0 24.0
74 58.0 40.0
75 57.0 20.0
76 61.0 27.0
77 33.0 29.0
78 12.0 61.0
79 25.0 25.0
80 73.0 19.0
81 52.0 51.0
82 13.0 44.0
83 11.0 44.0
84 44.0 56.0
85 40.0 43.0
86 63.0 45.0
87 37.0 26.0
88 3.0 24.0
89 28.0 23.0
90 6.0 50.0
91 9.0 28.0
92 40.0 61.0
93 41.0 26.0
94 42.0 25.0
95 59.0 50.0
96 73.0 21.0
97 11.0 46.0
98 31.0 24.0
99 9.0 58.0
100 39.0 37.0
101 12.0 20.0
102 3.0 26.0
103 55.0 36.0
104 27.0 29.0
105 52.0 28.0
106 44.0 24.0
107 13.0 21.0
108 53.0 57.0
109 35.0 21.0
110 54.0 10.0
111 18.0 23.0
112 8.0 61.0
113 39.0 39.0
114 6.0 54.0
115 53.0 41.0
116 27.0 22.0
117 43.0 27.0
118 8.0 27.0
119 10.0 24.0
120 26.0 20.0
121 54.0 58.0
122 61.0 51.0
123 37.0 60.0
124 56.0 18.0
125 39.0 32.0
126 38.0 34.0
127 31.0 28.0
128 12.0 24.0
129 43.0 57.0
130 48.0 53.0
131 69.0 21.0
132 38.0 52.0
133 61.0 17.0
134 38.0 61.0
135 41.0 23.0
136 58.0 39.0
137 7.0 55.0
138 8.0 20.0
139 42.0 31.0
140 10.0 26.0
141 54.0 5.0
142 68.0 22.0
143 73.0 18.0
144 37.0 53.0
145 8.0 56.0
146 54.0 23.0
147 60.0 57.0
148 51.0 54.0
149 55.0 33.0
150 75.0 18.0
151 47.0 29.0
152 41.0 25.0
153 44.0 21.0
154 65.0 19.0
155 3.0 53.0
156 5.0 50.0
157 63.0 19.0
158 56.0 13.0
159 38.0 47.0
160 3.0 25.0
161 36.0 22.0
162 58.0 34.0
163 10.0 21.0
164 9.0 23.0
165 55.0 53.0
166 45.0 52.0
167 68.0 17.0
168 9.0 50.0
169 13.0 32.0
170 11.0 47.0
171 60.0 61.0
172 13.0 41.0
173 58.0 18.0
174 59.0 17.0
175 70.0 26.0
176 59.0 44.0
177 65.0 23.0
178 68.0 19.0
179 46.0 28.0
180 58.0 57.0
181 51.0 51.0
182 13.0 34.0
183 50.0 53.0
184 67.0 23.0
185 10.0 53.0
186 69.0 20.0
187 13.0 52.0
188 54.0 32.0
189 70.0 28.0
190 37.0 25.0
191 54.0 41.0
192 30.0 19.0
193 57.0 3.0
194 65.0 16.0
195 42.0 30.0
196 12.0 44.0
197 56.0 56.0
198 54.0 4.0
199 68.0 21.0
200 43.0 31.0
201 58.0 50.0
202 37.0 61.0
203 15.0 24.0
204 41.0 52.0
205 56.0 22.0
206 61.0 18.0
207 39.0 45.0
208 54.0 43.0
209 42.0 23.0
210 19.0 21.0
211 75.0 29.0
212 58.0 52.0
213 35.0 29.0
214 13.0 29.0
215 15.0 26.0
216 38.0 28.0
217 55.0 7.0
218 41.0 54.0
219 64.0 19.0
220 10.0 57.0
221 22.0 22.0
222 39.0 47.0
223 14.0 27.0
224 30.0 23.0
225 12.0 57.0
226 35.0 22.0
227 72.0 16.0
228 13.0 31.0
229 21.0 23.0
230 36.0 23.0
231 70.0 25.0
232 3.0 20.0
233 45.0 35.0
234 69.0 29.0
235 14.0 38.0
236 6.0 55.0
237 58.0 38.0
238 40.0 57.0
239 32.0 28.0
240 33.0 27.0
START_DEPOT_SECTION
1
2
3
4
5
6
7
8
9
10
11
12
13
14
15
16
17
18
19
20
21
22
23
24
25
26
27
28
29
30
-1
END_DEPOT_SECTION
31
32
33
34
35
36
37
38
39
40
41
42
43
44
45
46
47
48
49
50
51
52
53
54
55
56
57
58
59
60
-1
EOF
